150 9071944
99 67 31 4 139 126 100 11 61 91 32 116 142 15 111 52 84 23 78 113 62 68 40 86 146 60 130 138 2 29 74 102 47 120 14 131 66 141 58 49 129 93 94 108 17 51 9 150 43 88 36 5 46 145 28 76 134 119 18 110 79 89 106 101 122 55 109 98 104 97 87 57 132 44 112 33 136 12 8 114 95 72 53 35 133 123 127 103 39 128 37 21 85 64 22 10 82 19 69 143 50 38 71 65 13 121 75 80 117 144 63 20 107 41 105 148 26 27 92 125 42 3 56 34 90 24 25 45 96 30 54 81 7 77 140 1 124 149 83 16 135 118 147 59 70 115 6 137 48 73 
